Minimize

2.5 x_0 + 4.8 x_1 + 3.7 x_2 + 1.9 x_3


Subject To

a0: 1 x_0 + 0 x_1 + 0 x_2 + 0 x_3 >= 1
a1: 1 x_0 + 1 x_1 + 0 x_2 + 0 x_3 >= 1
a2: 1 x_0 + 0 x_1 + 1 x_2 + 0 x_3 >= 1
a3: 0 x_0 + 1 x_1 + 1 x_2 + 1 x_3 >= 1
a4: 0 x_0 + 0 x_1 + 0 x_2 + 1 x_3 >= 1




Binary

x_0 x_1 x_2 x_3

 


End
